NAME : gr96.tsp
TYPE : TOUR
DIMENSION : 96
TOUR_LENGTH : 575.8040433365721
TOUR_SECTION
1
30
31
32
36
37
38
35
34
44
45
46
47
48
54
58
57
56
69
70
81
82
83
91
90
89
87
88
78
85
86
84
74
75
77
76
73
72
71
59
60
62
61
63
64
66
67
68
94
93
92
95
96
65
28
26
22
23
24
25
27
21
19
18
20
17
16
15
14
13
12
10
9
7
8
6
5
4
2
3
29
33
11
40
41
42
43
49
50
52
53
55
51
79
80
39
-1
